#SOLVERNAME# PAJ_Gurobi_MOSEK_msd_subponly_noinit
#SOLVER# Pajarito.PajaritoSolver(3, 3600.0, 1.0e-5, true, Gurobi.GurobiSolver(nothing, Any[(:OutputFlag, 1), (:Threads, 8), (:IntFeasTol, 1.0e-9), (:FeasibilityTol, 1.0e-8), (:MIPGap, 1.0e-5)]), Pajarito.UnsetSolver(), 0, false, true, Mosek.MosekSolver(Any[(:LOG, 0), (:NUM_THREADS, 8), (:MSK_DPAR_INTPNT_CO_TOL_REL_GAP, 1.0e-10), (:MSK_DPAR_INTPNT_CO_TOL_PFEAS, 1.0e-10), (:MSK_DPAR_INTPNT_CO_TOL_DFEAS, 1.0e-10), (:MSK_DPAR_INTPNT_CO_TOL_NEAR_REL, 1000.0)]), true, true, false, false, true, false, false, true, false, false, false, false, false, false, true, 10.0, true, false, false, false, 1.0e-12, 1.0e-8, false, "")
#INSTANCE# estein4_A.cbf.gz
#TIMELIMIT# 3600.0

Problem dimensions:
       variables |      67
     constraints |     108
   nonzeros in A |     128

Cones summary:
Cone             | Count   | Min dim.  | Max dim. 
    Second order |       9 |         3 |         3

Variable types:
      continuous |      58
         integer |       9

Transforming data...               0.00s

Creating conic subproblem...       0.00s

Building MIP model...              0.00s

Solving conic relaxation...        0.00s
 - Relaxation status    =        Optimal
 - Relaxation bound     =       0.000003
Academic license - for non-commercial use only
Optimize a model with 144 rows, 85 columns and 218 nonzeros
Variable types: 76 continuous, 9 integer (0 binary)
Coefficient statistics:
  Matrix range     [6e-09, 2e+05]
  Objective range  [1e+00, 1e+00]
  Bounds range     [0e+00, 0e+00]
  RHS range        [3e-01, 1e+00]
Warning: Model contains large matrix coefficient range
         Consider reformulating model or setting NumericFocus parameter
         to avoid numerical issues.
Presolve removed 110 rows and 41 columns
Presolve time: 0.00s
Presolved: 34 rows, 44 columns, 126 nonzeros
Variable types: 40 continuous, 4 integer (4 binary)

Root relaxation: objective 3.473950e-06, 23 iterations, 0.00 seconds

    Nodes    |    Current Node    |     Objective Bounds      |     Work
 Expl Unexpl |  Obj  Depth IntInf | Incumbent    BestBd   Gap | It/Node Time

     0     0    0.00000    0    4          -    0.00000      -     -    0s
H    0     0                       0.9266236    0.00000   100%     -    0s
H    0     0                       0.8013655    0.00000   100%     -    0s
     0     0    0.01176    0    4    0.80137    0.01176  98.5%     -    0s
     0     0    0.02409    0    4    0.80137    0.02409  97.0%     -    0s
     0     0    0.02410    0    4    0.80137    0.02410  97.0%     -    0s
     0     2    0.02410    0    4    0.80137    0.02410  97.0%     -    0s

Cutting planes:
  Gomory: 2
  MIR: 4
  Flow cover: 1
  Lazy constraints: 28

Explored 29 nodes (369 simplex iterations) in 0.03 seconds
Thread count was 8 (of 16 available processors)

Solution count 2: 0.801365 0.926624 

Optimal solution found (tolerance 1.00e-05)
Best objective 8.013654952648e-01, best bound 8.013654952648e-01, gap 0.0000%

Starting MIP-solver-driven algorithm

MIP-solver-driven algorithm summary:
 - Status               =        Optimal
 - Best feasible        =  +8.013655e-01
 - Best bound           =  +8.013655e-01
 - Relative opt. gap    =      9.902e-12
 - Total time (s)       =       3.73e-02

Timers (s):
 - Setup                =   1.87e-03
 -- Transform data      =   1.11e-04
 -- Create conic data   =   1.44e-03
 -- Create MIP data     =   3.15e-04
 - Algorithm            =   3.54e-02
 -- Solve relaxation    =   4.57e-03
 -- Get relaxation cuts =   8.43e-05
 -- MIP solver driving  =   3.04e-02
 -- Solve subproblems   =   1.00e-02
 -- Get subproblem cuts =   5.40e-04
 -- Get separation cuts =   0.00e+00

Counters:
 - Lazy callbacks       =     7
 -- Integer repeats     =     4
 -- Conic subproblems   =     4
 --- Infeasible         =     0
 --- Optimal            =     4
 --- Suboptimal         =     0
 --- UserLimit          =     0
 --- ConicFailure       =     0
 --- Other status       =     0
 -- Feasible solutions  =     4
 --- From subproblems   =     4
 --- In lazy callback   =     0
 - Heuristic callbacks  =    21
 -- Solutions passed    =     1

Solution returned by conic solver

Rounds of full separation/subproblem cuts, and count of cuts added:
Cone             | Subp.  | Sep.   | Total  | Relax. | Viol. 
    Second order |     72 |      0 |     28 |     18 |     28

0 numerically unstable disaggregated SOC cuts

Distance to feasibility (negative indicates strict feasibility):
Cone             | Variable  | Constraint
          Linear |  0.00e+00 |  1.79e-10
    Second order | -2.55e-12 |        NA

Distance to integrality of integer/binary variables:
         integer |  0.00e+00

#STATUS# Optimal
#OBJVAL# 0.8013654952726907
#OBJBOUND# 0.8013654952647558
#NODECOUNT# 29
#TIMESOLVER# 0.03728294372558594
#TIMEALL# 0.037756919860839844
#SOLUTION# [0.41827084520033764,0.4979025813092557,0.6604751615937712,0.3835359071328114,0.493351,0.4001181548364807,-0.004925581281556942,0.19213051087513272,0.15791383849023358,0.10944109292759265,0.1490055402257073,-0.012270845164877526,0.1484994187722647,0.493351,-0.25447516159437183,0.26286609286555956,0.493351,0.2490411548376484,-0.19710458128007174,0.08301989906481641,0.006836838405761782,-0.08273790715781355,0.10936132889528027,-0.08988484520033764,-0.062294581309255685,0.493351,-0.3320891615937711,0.05207209286718861,0.26784821621175403,-0.24220431621458802,0.11436667404467717,-0.0,0.19213051087513272,0.14900554022570733,-0.0,-0.0,0.08301989906481644,0.10936132889528027,-0.0,0.26784821621175403,0.0,1.0,1.0,0.0,0.0,1.0,1.0,0.0,1.0,1.0,0.0,0.0,1.0,1.0,0.0,0.0,1.0,0.0,0.0,0.30122048912486726,0.34434545977429265,0.0,0.0,0.41033110093518355,0.3839896711047197,0.0,0.22550278378824595]
